 C  O  H  O  H  O  H  O  H  O  H  O  H  O  H  O  H  O  H  O  H  O  H  O  H  O  H  O  H  O  H  O  H  O  H  O  H  O  H  O  H  O  H  O  H  O  H  O  H  O  H  O  H  O  H  O  H  O  H  O  H  O  H  O  H  O 
 1.0000000000000000
    17.1375808898043580    0.0000000000000000    0.0000000000000000
     0.0000000000000000   14.7812280219492997    0.0000000000000000
     0.0000000000000000    0.0000000000000000    8.0000000000000000
   C   O   H   O   H   O   H   O   H   O   H   O   H   O   H   O   H   O   H   O   H   O   H   O   H   O   H   O   H   O   H   O   H   O   H   O   H   O   H   O   H   O   H   O   H   O   H   O   H   O   H   O   H   O   H   O   H   O   H   O   H   O   H   O   H   O
  96   1   1   3   1   3   1   2   1   2   1   4   1   1   1   1   1   1   1   1   1   5   1  10   1   2   1   2   1   1   1   1   1   1   1   2   1   4   1   1   1   4   1   1   1   5   1   1   1   1   1   2   1   2   1   2   1   1   1   1   1   4   1   2   1   1
Direct
  0.1667207335983635  0.0416666754574313  0.2973349065657531
  0.2083037391087467  0.1250000033886638  0.2973349075947286
  0.1667207344274357  0.2083333247363804  0.2973349064595264
  0.2083037452294763  0.2916666751785346  0.2973349127640719
  0.0416962642585983  0.1250000021701968  0.2973349029972021
  0.0832792662339693  0.2083333255974166  0.2973349045113182
  0.0416962590671645  0.2916666736134449  0.2973349079827458
  0.0832792666763812  0.0416666754998547  0.2973349044329303
  0.1667207365776764  0.3750000006943217  0.2973349047136481
  0.2083037452729568  0.4583333290889369  0.2973349129705766
  0.1667207335970813  0.5416666754574574  0.2973349065657529
  0.2083037391088887  0.6250000033875496  0.2973349075947300
  0.0416962595107611  0.4583333283714275  0.2973349081750367
  0.0832792666776671  0.5416666754998797  0.2973349044329296
  0.0416962642584450  0.6250000021690827  0.2973349029972022
  0.0832792637076085  0.3750000011918563  0.2973349026240267
  0.1667207344287213  0.7083333247363576  0.2973349064595267
  0.2083037452293307  0.7916666751796471  0.2973349127640735
  0.1667207365763957  0.8750000006943476  0.2973349047136482
  0.2083037452731010  0.9583333290878262  0.2973349129705768
  0.0416962590673160  0.7916666736145571  0.2973349079827464
  0.0832792637088930  0.8750000011918821  0.2973349026240263
  0.0416962595106108  0.9583333283703168  0.2973349081750371
  0.0832792662326819  0.7083333255973914  0.2973349045113189
  0.4167207443186968  0.0416666767163467  0.2973349087213306
  0.4583037465516736  0.1250000019274070  0.2973349021200146
  0.4167207451147500  0.2083333252479278  0.2973349088587441
  0.4583037533283549  0.2916666732914574  0.2973349071261148
  0.2916962602631124  0.1250000016913039  0.2973349015977604
  0.3332792593371267  0.2083333256336300  0.2973349046947441
  0.2916962548048574  0.2916666731290387  0.2973349065453707
  0.3332792596123765  0.0416666757560701  0.2973349045142345
  0.4167207463595384  0.3750000017441241  0.2973349068173664
  0.4583037531566233  0.4583333285650011  0.2973349071390587
  0.4167207443174125  0.5416666767163726  0.2973349087213312
  0.4583037465518165  0.6250000019262942  0.2973349021200151
  0.2916962552135826  0.4583333281253869  0.2973349066501650
  0.3332792596136662  0.5416666757560948  0.2973349045142340
  0.2916962602629650  0.6250000016901904  0.2973349015977620
  0.3332792569586238  0.3750000014864271  0.2973349028003847
  0.4167207451160324  0.7083333252479042  0.2973349088587452
  0.4583037533282140  0.7916666732925691  0.2973349071261141
  0.4167207463582558  0.8750000017441489  0.2973349068173670
  0.4583037531567679  0.9583333285638894  0.2973349071390594
  0.2916962548050066  0.7916666731301516  0.2973349065453710
  0.3332792569599118  0.8750000014864523  0.2973349028003849
  0.2916962552134347  0.9583333281242757  0.2973349066501656
  0.3332792593358377  0.7083333256336061  0.2973349046947449
  0.6667207442362546  0.0416666757004568  0.2973349037754078
  0.7083037450924853  0.1250000020117729  0.2973348989892955
  0.6667207449587839  0.2083333251584858  0.2973349039059311
  0.7083037513605691  0.2916666728620660  0.2973349037627932
  0.5416962543155044  0.1250000013472307  0.2973349002062022
  0.5832792549003631  0.2083333259970058  0.2973349071472264
  0.5416962482607309  0.2916666727044000  0.2973349051585474
  0.5832792553428283  0.0416666769868655  0.2973349068856805
  0.6667207460714329  0.3750000010667104  0.2973349019727695
  0.7083037513781055  0.4583333289012965  0.2973349039473123
  0.6667207442349723  0.5416666757004830  0.2973349037754077
  0.7083037450926295  0.6250000020106591  0.2973348989892964
  0.5416962486862279  0.4583333281864317  0.2973349050834956
  0.5832792553441201  0.5416666769868904  0.2973349068856792
  0.5416962543153574  0.6250000013461168  0.2973349002062028
  0.5832792532558337  0.3750000023024159  0.2973349050891481
  0.6667207449600685  0.7083333251584624  0.2973349039059328
  0.7083037513604231  0.7916666728631789  0.2973349037627945
  0.6667207460701512  0.8750000010667357  0.2973349019727693
  0.7083037513782506  0.9583333289001846  0.2973349039473128
  0.5416962482608778  0.7916666727055118  0.2973349051585474
  0.5832792532571228  0.8750000023024408  0.2973349050891478
  0.5416962486860808  0.9583333281853210  0.2973349050834959
  0.5832792548990720  0.7083333259969824  0.2973349071472277
  0.9167207367575848  0.0416666748158511  0.2973349040107411
  0.9583037382447989  0.1250000029612131  0.2973349034366490
  0.9167207375978784  0.2083333249646902  0.2973349039283057
  0.9583037437445295  0.2916666741523258  0.2973349083350719
  0.7916962577475053  0.1250000021187239  0.2973349035010731
  0.8332792624709903  0.2083333254562476  0.2973349065724492
  0.7916962515904421  0.2916666735241915  0.2973349084801716
  0.8332792629263494  0.0416666760133568  0.2973349066019167
  0.9167207392209169  0.3750000003247314  0.2973349021808891
  0.9583037437930266  0.4583333292100610  0.2973349086529878
  0.9167207367563026  0.5416666748158769  0.2973349040107399
  0.9583037382449440  0.6250000029600999  0.2973349034366490
  0.7916962517567555  0.4583333284795338  0.2973349086251588
  0.8332792629276393  0.5416666760133833  0.2973349066019168
  0.7916962577473575  0.6250000021176103  0.2973349035010749
  0.8332792598814380  0.3750000012810395  0.2973349046795248
  0.9167207375991625  0.7083333249646662  0.2973349039283062
  0.9583037437443863  0.7916666741534383  0.2973349083350724
  0.9167207392196403  0.8750000003247570  0.2973349021808886
  0.9583037437931696  0.9583333292089495  0.2973349086529878
  0.7916962515905873  0.7916666735253050  0.2973349084801729
  0.8332792598827243  0.8750000012810647  0.2973349046795257
  0.7916962517566087  0.9583333284784231  0.2973349086251592
  0.8332792624696997  0.7083333254562248  0.2973349065724507
  0.1667207335983635  0.0416666754574313  0.3598349065657531
  0.1667207335983635  0.0416666754574313  0.4223349065657531
  0.2083037391087467  0.1250000033886638  0.3598349075947286
  0.1667207344274357  0.2083333247363804  0.3598349064595264
  0.2083037452294763  0.2916666751785346  0.3598349127640719
  0.2083037452294763  0.2916666751785346  0.4223349127640719
  0.0416962642585983  0.1250000021701968  0.3598349029972021
  0.0832792662339693  0.2083333255974166  0.2348349045113182
  0.1667207365776764  0.3750000006943217  0.2348349047136481
  0.1667207365776764  0.3750000006943217  0.1723349047136481
  0.2083037452729568  0.4583333290889369  0.3598349129705766
  0.1667207335970813  0.5416666754574574  0.3598349065657529
  0.1667207335970813  0.5416666754574574  0.4223349065657529
  0.2083037391088887  0.6250000033875496  0.2348349075947300
  0.0416962595107611  0.4583333283714275  0.3598349081750367
  0.0416962595107611  0.4583333283714275  0.4223349081750367
  0.0832792666776671  0.5416666754998797  0.2348349044329296
  0.0416962642584450  0.6250000021690827  0.3598349029972022
  0.1667207344287213  0.7083333247363576  0.2348349064595267
  0.1667207365763957  0.8750000006943476  0.2348349047136482
  0.1667207365763957  0.8750000006943476  0.1723349047136482
  0.2083037452731010  0.9583333290878262  0.2348349129705768
  0.2083037452731010  0.9583333290878262  0.1723349129705768
  0.0416962590673160  0.7916666736145571  0.2348349079827464
  0.0416962590673160  0.7916666736145571  0.1723349079827464
  0.0416962595106108  0.9583333283703168  0.2348349081750371
  0.0416962595106108  0.9583333283703168  0.1723349081750371
  0.0832792662326819  0.7083333255973914  0.3598349045113189
  0.0832792662326819  0.7083333255973914  0.4223349045113189
  0.4167207443186968  0.0416666767163467  0.2348349087213306
  0.4583037465516736  0.1250000019274070  0.3598349021200146
  0.4583037533283549  0.2916666732914574  0.3598349071261148
  0.2916962602631124  0.1250000016913039  0.2348349015977604
  0.3332792593371267  0.2083333256336300  0.2348349046947441
  0.3332792593371267  0.2083333256336300  0.1723349046947441
  0.2916962548048574  0.2916666731290387  0.2348349065453707
  0.4167207463595384  0.3750000017441241  0.2348349068173664
  0.4167207443174125  0.5416666767163726  0.3598349087213312
  0.2916962552135826  0.4583333281253869  0.2348349066501650
  0.3332792596136662  0.5416666757560948  0.2348349045142340
  0.2916962602629650  0.6250000016901904  0.3598349015977620
  0.3332792569586238  0.3750000014864271  0.3598349028003847
  0.4167207451160324  0.7083333252479042  0.3598349088587452
  0.4583037533282140  0.7916666732925691  0.3598349071261141
  0.4167207463582558  0.8750000017441489  0.2348349068173670
  0.4167207463582558  0.8750000017441489  0.1723349068173670
  0.4583037531567679  0.9583333285638894  0.2348349071390594
  0.3332792569599118  0.8750000014864523  0.2348349028003849
  0.3332792569599118  0.8750000014864523  0.1723349028003849
  0.2916962552134347  0.9583333281242757  0.3598349066501656
  0.6667207442362546  0.0416666757004568  0.3598349037754078
  0.6667207442362546  0.0416666757004568  0.4223349037754078
  0.7083037450924853  0.1250000020117729  0.3598348989892955
  0.7083037450924853  0.1250000020117729  0.4223348989892955
  0.6667207449587839  0.2083333251584858  0.3598349039059311
  0.6667207449587839  0.2083333251584858  0.4223349039059311
  0.7083037513605691  0.2916666728620660  0.3598349037627932
  0.7083037513605691  0.2916666728620660  0.4223349037627932
  0.5416962543155044  0.1250000013472307  0.3598349002062022
  0.5832792549003631  0.2083333259970058  0.3598349071472264
  0.5832792549003631  0.2083333259970058  0.4223349071472264
  0.5832792553428283  0.0416666769868655  0.2348349068856805
  0.7083037513781055  0.4583333289012965  0.2348349039473123
  0.6667207442349723  0.5416666757004830  0.2348349037754077
  0.7083037450926295  0.6250000020106591  0.3598348989892964
  0.7083037450926295  0.6250000020106591  0.4223348989892964
  0.5416962486862279  0.4583333281864317  0.2348349050834956
  0.5416962486862279  0.4583333281864317  0.1723349050834956
  0.5416962543153574  0.6250000013461168  0.3598349002062028
  0.5832792532558337  0.3750000023024159  0.2348349050891481
  0.6667207449600685  0.7083333251584624  0.2348349039059328
  0.7083037513604231  0.7916666728631789  0.2348349037627945
  0.7083037513604231  0.7916666728631789  0.1723349037627945
  0.6667207460701512  0.8750000010667357  0.3598349019727693
  0.6667207460701512  0.8750000010667357  0.4223349019727693
  0.7083037513782506  0.9583333289001846  0.3598349039473128
  0.5832792532571228  0.8750000023024408  0.3598349050891478
  0.5832792548990720  0.7083333259969824  0.3598349071472277
  0.9167207367575848  0.0416666748158511  0.2348349040107411
  0.9583037382447989  0.1250000029612131  0.3598349034366490
  0.9583037382447989  0.1250000029612131  0.4223349034366490
  0.9167207375978784  0.2083333249646902  0.3598349039283057
  0.9167207375978784  0.2083333249646902  0.4223349039283057
  0.9583037437445295  0.2916666741523258  0.2348349083350719
  0.9583037437445295  0.2916666741523258  0.1723349083350719
  0.8332792624709903  0.2083333254562476  0.3598349065724492
  0.7916962515904421  0.2916666735241915  0.2348349084801716
  0.7916962515904421  0.2916666735241915  0.1723349084801716
  0.8332792629263494  0.0416666760133568  0.2348349066019167
  0.9167207392209169  0.3750000003247314  0.2348349021808891
  0.9167207392209169  0.3750000003247314  0.1723349021808891
  0.9583037382449440  0.6250000029600999  0.2348349034366490
  0.7916962517567555  0.4583333284795338  0.3598349086251588
  0.7916962517567555  0.4583333284795338  0.4223349086251588
  0.8332792629276393  0.5416666760133833  0.3598349066019168
  0.8332792629276393  0.5416666760133833  0.4223349066019168
  0.7916962577473575  0.6250000021176103  0.2348349035010749
  0.7916962577473575  0.6250000021176103  0.1723349035010749
  0.8332792598814380  0.3750000012810395  0.2348349046795248
  0.9167207375991625  0.7083333249646662  0.3598349039283062
  0.9167207392196403  0.8750000003247570  0.2348349021808886
  0.9583037437931696  0.9583333292089495  0.2348349086529878
  0.9583037437931696  0.9583333292089495  0.1723349086529878
  0.7916962515905873  0.7916666735253050  0.2348349084801729
  0.8332792598827243  0.8750000012810647  0.2348349046795257
  0.8332792598827243  0.8750000012810647  0.1723349046795257
  0.8332792624696997  0.7083333254562248  0.2348349065724507
